(set-logic HORN)
(declare-fun inv ((_ BitVec 32) (_ BitVec 32) (_ BitVec 32) (_ BitVec 32) ) Bool)
(assert (forall ((sn (_ BitVec 32)) (loop1 (_ BitVec 32)) (n1 (_ BitVec 32)) (x (_ BitVec 32))) 
       (=> ( and ( = sn (_ bv0 32) ) ( = x (_ bv0 32) ) ( bvuge loop1 (_ bv0 32) ) ( bvuge n1 (_ bv0 32) ) ) (inv sn loop1 n1 x))))
(assert (forall ((sn (_ BitVec 32)) (loop1 (_ BitVec 32)) (n1 (_ BitVec 32)) (x (_ BitVec 32)) (sn! (_ BitVec 32)) (loop1! (_ BitVec 32)) (n1! (_ BitVec 32)) (x! (_ BitVec 32))) 
       (=> (and (inv sn loop1 n1 x) ( and ( ite ( bvult x (_ bv10 32) ) ( = sn! ( bvadd sn (_ bv2 32) ) ) ( = sn! sn ) ) ( = x! ( bvadd x (_ bv1 32) ) ) ( = loop1! loop1 ) ( = n1! n1 ) )) (inv sn! loop1! n1! x!))))
(assert (forall ((sn (_ BitVec 32)) (loop1 (_ BitVec 32)) (n1 (_ BitVec 32)) (x (_ BitVec 32))) 
       (=> (inv sn loop1 n1 x) ( or ( = sn ( bvmul x (_ bv2 32) ) ) ( = sn (_ bv0 32) ) ))))
(check-sat)
